&CONTROL
title="Test"
calculation='md',
restart_mode = 'from_scratch',
tprnfor=.t.,
prefix='qe',
pseudo_dir='pseudo'
nstep = 1,
tqmmm = .true.
/

&SYSTEM
ibrav = 1,
celldm(1) = 9.321077825,
celldm(2) = 1.,
celldm(3) = 1.,
celldm(4) = 0.,
celldm(5) = 0.,
celldm(6) = 0.,
nat = 3,
ntyp = 2,
ecutwfc = 80.0 ,
/

&ELECTRONS
conv_thr  = 1.D-6,
/

&IONS
ion_positions = 'default'
/

ATOMIC_SPECIES
O 16.0000 O.pbe-van_bm.UPF
H 1.0000  H.pbe-van_ak.UPF

ATOMIC_POSITIONS angstrom
O 2.17919 0.196156 4.15513
H 2.29785 4.8353 0.126003
H 1.82037 1.07996 4.23498

K_POINTS gamma
