Geometry = {
  TypeNames = { "O" "H" }
  TypesAndCoordinates [Angstrom] = {
    1 2.17919 0.196156 4.15513
    2 2.29785 4.8353 0.126003
    2 1.82037 1.07996 4.23498
    1 4.65839 0.120414 0.305758
    2 4.67446 -0.0220991 4.29186
    2 4.28188 0.994196 0.410515
    1 3.65045 2.40907 0.344349
    2 3.52052 2.1838 4.35565
    2 4.26579 3.14208 0.327669
    1 1.21327 2.62177 4.15519
    2 1.47452 3.53837 4.0667
    2 1.20743 2.46396 0.16677
    1 4.45777 4.47325 2.74192
    2 4.53396 4.49652 1.78804
    2 4.21354 3.56943 2.94119
    1 2.04119 4.41585 1.64725
    2 2.26934 4.77582 2.50434
    2 1.69079 3.54574 1.83793
    1 3.73384 1.97964 2.81949
    2 3.41083 2.22014 1.95113
    2 3.91914 1.04272 2.75561
    1 1.20859 2.09853 1.68186
    2 1.01865 2.25693 2.60655
    2 1.16884 1.14674 1.58832
  }
  Periodic = Yes
  LatticeVectors [Angstrom] = {
    4.9325 0. 0.
    0. 4.9325 0.
    0. 0. 4.9325
  }
}





Driver = ConjugateGradient {
  MovedAtoms = 1:-1
  MaxForceComponent = 1E-4
  MaxSteps = 100
  OutputPrefix = "geom.out"
}

Hamiltonian = DFTB {
  Scc = Yes
  SlaterKosterFiles {
    O-O = "../slakos/mio-1-1/O-O.skf"
    O-H = "../slakos/mio-1-1/O-H.skf"
    H-O = "../slakos/mio-1-1/H-O.skf"
    H-H = "../slakos/mio-1-1/H-H.skf"
  }
  MaxAngularMomentum {
    O = "p"
    H = "s"
  }
  KPointsAndWeights = SupercellFolding {
    1 0 0
    0 1 0
    0 0 1
    0.0 0.0 0.0
  }
}

Options {}

Analysis {
  CalculateForces = Yes
}

ParserOptions {
  ParserVersion = 7
}
